(declare-const tmp___2 Int)
(declare-const term_to_project_onto0_integralized Int)
(declare-const term_to_project_onto_integralized Int)
(declare-const term_to_project_onto2_integralized Int)
(declare-const term_to_project_onto1_integralized Int)
(assert (exists
         ((|tmp___2'?1?1| Int) (|tmp___1'?2?2| Int) (|tmp___0'?3?3| Int)
            (havoc?4?4 Int) (phi_tmp___1?5?5 Int) (phi_tmp___0?6?6 Int)
            (phi_t?7?7 Int) (phi_t?8?8 Int) (havoc?9?9 Int) (havoc?10?10 Int)
            (|t'?11?11| Int) (tmp___0?12?12 Int) (tmp___1?13?13 Int)
            (t?14?14 Int) (tagbuf_len?15?15 Int))
         (and (<= (+ (- t?14?14) 1) 0) (<= (- tagbuf_len?15?15) 0)
                (or (<= (+ (- tagbuf_len?15?15) t?14?14 1) 0)
                      (<= (+ tagbuf_len?15?15 (- t?14?14) 1) 0))
                (or (and (or (<= (+ havoc?10?10 1) 0)
                               (<= (+ (- havoc?10?10) 1) 0))
                           (or (and (= havoc?9?9 0)
                                      (= (+ (- phi_t?8?8) t?14?14) 0))
                                 (and (or (<= (+ havoc?9?9 1) 0)
                                            (<= (+ (- havoc?9?9) 1) 0))
                                        (<= (- t?14?14) 0)
                                        (<= (+ (- tagbuf_len?15?15) t?14?14) 0)
                                        (or (<= (+ (- tagbuf_len?15?15)
                                                     t?14?14 2) 0)
                                              (<= (+ tagbuf_len?15?15
                                                       (- t?14?14)) 0))
                                        (= (+ (- phi_t?8?8) t?14?14 1) 0)))
                           (= (+ (- phi_t?7?7) phi_t?8?8) 0)
                           (= (+ (- phi_tmp___0?6?6) havoc?9?9) 0)
                           (= (+ (- phi_tmp___1?5?5) tmp___1?13?13) 0))
                      (and (= havoc?10?10 0) (= havoc?4?4 0)
                             (= (+ (- phi_t?7?7) t?14?14) 0)
                             (= (+ tmp___0?12?12 (- phi_tmp___0?6?6)) 0)
                             (= (+ havoc?4?4 (- phi_tmp___1?5?5)) 0)))
                (<= (- phi_t?7?7) 0)
                (<= (+ phi_t?7?7 (- tagbuf_len?15?15)) 0)
                (= (+ |tmp___2'?1?1| (- havoc?10?10)) 0)
                (= (+ |tmp___1'?2?2| (- phi_tmp___1?5?5)) 0)
                (= (+ |tmp___0'?3?3| (- phi_tmp___0?6?6)) 0)
                (= (+ |t'?11?11| (- phi_t?7?7) -1) 0)
                (= (+ term_to_project_onto2_integralized
                        (- (+ |t'?11?11| (- t?14?14)))) 0)
                (= (+ term_to_project_onto1_integralized
                        (- (+ |tmp___0'?3?3| (- tmp___0?12?12)))) 0)
                (= (+ term_to_project_onto0_integralized
                        (- (+ |tmp___1'?2?2| (- tmp___1?13?13)))) 0)
                (= (+ term_to_project_onto_integralized
                        (- (+ |tmp___2'?1?1| (- tmp___2)))) 0))))